; 
(set-info :status unknown)
(declare-fun zext_0x4708650 () (_ BitVec 32))
(declare-fun var_buffer_caseless_compare_%conv6_0x47084b0 () (_ BitVec 32))
(declare-fun var_buffer_caseless_compare_%temp_var0_0x47064e0 () (_ BitVec 8))
(declare-fun isge_0x4708ae0 () (_ BitVec 1))
(declare-fun var_buffer_caseless_compare_%cmp7_0x4708970 () (_ BitVec 1))
(declare-fun var_buffer_caseless_compare_%cmp10_0x4709190 () (_ BitVec 1))
(declare-fun and_0x47094f0 () (_ BitVec 1))
(declare-fun zext_0x4708e70 () (_ BitVec 32))
(declare-fun var_buffer_caseless_compare_%conv9_0x4708cd0 () (_ BitVec 32))
(declare-fun isle_0x4709300 () (_ BitVec 1))
(declare-fun var_buffer_caseless_compare_%or.cond_0x47012d0 () (_ BitVec 1))
(declare-fun var_buffer_caseless_compare_%conv14_0x470acb0 () (_ BitVec 8))
(declare-fun var_buffer_caseless_compare_%ca.0_0x470b010 () (_ BitVec 8))
(declare-fun var_buffer_caseless_compare_%cmp1_0x4700bd0 () (_ BitVec 1))
(declare-fun var_buffer_caseless_compare_%cmp4_0x4700db0 () (_ BitVec 1))
(declare-fun zext_0x470a630 () (_ BitVec 32))
(declare-fun var_buffer_caseless_compare_%conv13_0x4709f00 () (_ BitVec 32))
(declare-fun or_0x470aac0 () (_ BitVec 32))
(declare-fun var_buffer_caseless_compare_%or_0x470a950 () (_ BitVec 32))
(declare-fun trunc_0x470ae50 () (_ BitVec 8))
(declare-fun zext_0x470de60 () (_ BitVec 32))
(declare-fun var_buffer_caseless_compare_%conv28_0x470dcf0 () (_ BitVec 32))
(declare-fun var_buffer_caseless_compare_%conv29_0x470e000 () (_ BitVec 32))
(declare-fun ieq_0x470e360 () (_ BitVec 1))
(declare-fun zext_0x470b470 () (_ BitVec 32))
(declare-fun var_buffer_caseless_compare_%conv16_0x470b300 () (_ BitVec 32))
(declare-fun var_buffer_caseless_compare_%temp_var1_0x4707490 () (_ BitVec 8))
(declare-fun isge_0x470b7b0 () (_ BitVec 1))
(declare-fun var_buffer_caseless_compare_%cmp17_0x470b610 () (_ BitVec 1))
(declare-fun var_buffer_caseless_compare_%cmp21_0x470bd00 () (_ BitVec 1))
(declare-fun and_0x470c090 () (_ BitVec 1))
(declare-fun zext_0x470bb40 () (_ BitVec 32))
(declare-fun var_buffer_caseless_compare_%conv20_0x470b9a0 () (_ BitVec 32))
(declare-fun isle_0x470bea0 () (_ BitVec 1))
(declare-fun var_buffer_caseless_compare_%or.cond1_0x4702010 () (_ BitVec 1))
(declare-fun var_buffer_caseless_compare_%conv26_0x470d6a0 () (_ BitVec 8))
(declare-fun var_buffer_caseless_compare_%cb.0_0x470da00 () (_ BitVec 8))
(declare-fun zext_0x470d150 () (_ BitVec 32))
(declare-fun var_buffer_caseless_compare_%conv24_0x470ca60 () (_ BitVec 32))
(declare-fun or_0x470d4b0 () (_ BitVec 32))
(declare-fun var_buffer_caseless_compare_%or25_0x470d310 () (_ BitVec 32))
(declare-fun trunc_0x470d840 () (_ BitVec 8))
(declare-fun zext_0x470e1a0 () (_ BitVec 32))
(declare-fun var_buffer_caseless_compare_%cmp30_0x47025d0 () (_ BitVec 1))
(declare-fun var_buffer_caseless_compare_StMem__0xcb93b30 () (_ BitVec 8))
(declare-fun var_buffer_caseless_compare_LdMem_0x4706710 () (_ BitVec 8))
(declare-fun R0x47000c0 () (_ BitVec 1))
(declare-fun |parg_var_buffer_caseless_compare_%[S_1].0_0xcb93c30| () (_ BitVec 8))
(declare-fun zext_0x4707a80 () (_ BitVec 32))
(declare-fun var_buffer_caseless_compare_%conv_0x47078e0 () (_ BitVec 32))
(declare-fun var_buffer_caseless_compare_%conv3_0x4707c40 () (_ BitVec 32))
(declare-fun ieq_0x4707fb0 () (_ BitVec 1))
(declare-fun var_buffer_caseless_compare_StMem__0xcb93d50 () (_ BitVec 8))
(declare-fun var_buffer_caseless_compare_LdMem_0x4707630 () (_ BitVec 8))
(declare-fun |parg_var_buffer_caseless_compare_%[S_2].0_0xd5f43b0| () (_ BitVec 8))
(declare-fun zext_0x4707df0 () (_ BitVec 32))
(declare-fun iult_0x4705280 () (_ BitVec 1))
(declare-fun var_buffer_caseless_compare_%cmp_0x4704d70 () (_ BitVec 1))
(declare-fun carg_var_buffer_caseless_compare_%b_len_0x47007a0 () (_ BitVec 64))
(declare-fun carg_var_buffer_caseless_compare_%a_len_0x4700450 () (_ BitVec 64))
(declare-fun select_0x47050b0 () (_ BitVec 64))
(declare-fun var_buffer_caseless_compare_%a_len.b_len_0x4704f40 () (_ BitVec 64))
(declare-fun var_buffer_caseless_compare_%i.0_0x4705570 () (_ BitVec 64))
(declare-fun iult_0x47058e0 () (_ BitVec 1))
(declare-fun var_buffer_caseless_compare_%inc_0x470ee30 () (_ BitVec 64))
(declare-fun var_buffer_caseless_compare_%i.0.ec_0x4710150 () (_ BitVec 64))
(declare-fun add_0x470ff60 () (_ BitVec 64))
(declare-fun mul_0x47108b0 () (_ BitVec 64))
(declare-fun var_buffer_caseless_compare_node_0x4710a40 () (_ BitVec 64))
(declare-fun carg_var_buffer_caseless_compare_%a_0x46fffc0 () (_ BitVec 64))
(declare-fun add_0x4710c00 () (_ BitVec 64))
(declare-fun var_buffer_caseless_compare_node_0x4710de0 () (_ BitVec 64))
(declare-fun gep_0x4711120 () (_ BitVec 64))
(declare-fun iult_0x47103e0 () (_ BitVec 1))
(declare-fun var_buffer_caseless_compare_%cmp1.ec_0x47028a0 () (_ BitVec 1))
(declare-fun var_buffer_caseless_compare_%arrayidx.ec_0x4710f80 () (_ BitVec 64))
(assert
 (= var_buffer_caseless_compare_%conv6_0x47084b0 zext_0x4708650))
(assert
 (let ((?x135 ((_ zero_extend 24) var_buffer_caseless_compare_%temp_var0_0x47064e0)))
 (= zext_0x4708650 ?x135)))
(assert
 (= isge_0x4708ae0 (ite (bvsge var_buffer_caseless_compare_%conv6_0x47084b0 (_ bv65 32)) (_ bv1 1) (_ bv0 1))))
(assert
 (= var_buffer_caseless_compare_%cmp7_0x4708970 isge_0x4708ae0))
(assert
 (let ((?x180 (bvand var_buffer_caseless_compare_%cmp7_0x4708970 var_buffer_caseless_compare_%cmp10_0x4709190)))
 (= and_0x47094f0 ?x180)))
(assert
 (= var_buffer_caseless_compare_%conv9_0x4708cd0 zext_0x4708e70))
(assert
 (let ((?x135 ((_ zero_extend 24) var_buffer_caseless_compare_%temp_var0_0x47064e0)))
 (= zext_0x4708e70 ?x135)))
(assert
 (let (($x196 (bvsle var_buffer_caseless_compare_%conv9_0x4708cd0 (_ bv90 32))))
 (let ((?x197 (ite $x196 (_ bv1 1) (_ bv0 1))))
 (= isle_0x4709300 ?x197))))
(assert
 (= var_buffer_caseless_compare_%cmp10_0x4709190 isle_0x4709300))
(assert
 (= var_buffer_caseless_compare_%or.cond_0x47012d0 and_0x47094f0))
(assert
 (let (($x203 (= var_buffer_caseless_compare_%ca.0_0x470b010 var_buffer_caseless_compare_%conv14_0x470acb0)))
 (let (($x58 (= var_buffer_caseless_compare_%cmp1_0x4700bd0 (_ bv1 1))))
 (let (($x124 (and (not (= var_buffer_caseless_compare_%cmp4_0x4700db0 (_ bv1 1))) $x58)))
 (or (not (and (= var_buffer_caseless_compare_%or.cond_0x47012d0 (_ bv1 1)) $x124)) $x203)))))
(assert
 (let (($x207 (= var_buffer_caseless_compare_%ca.0_0x470b010 var_buffer_caseless_compare_%temp_var0_0x47064e0)))
 (let (($x58 (= var_buffer_caseless_compare_%cmp1_0x4700bd0 (_ bv1 1))))
 (let (($x124 (and (not (= var_buffer_caseless_compare_%cmp4_0x4700db0 (_ bv1 1))) $x58)))
 (let (($x209 (not (and $x124 (not (= var_buffer_caseless_compare_%or.cond_0x47012d0 (_ bv1 1)))))))
 (or $x209 $x207))))))
(assert
 (let (($x207 (= var_buffer_caseless_compare_%ca.0_0x470b010 var_buffer_caseless_compare_%temp_var0_0x47064e0)))
 (let (($x203 (= var_buffer_caseless_compare_%ca.0_0x470b010 var_buffer_caseless_compare_%conv14_0x470acb0)))
 (or $x203 $x207))))
(assert
 (= var_buffer_caseless_compare_%conv13_0x4709f00 zext_0x470a630))
(assert
 (let ((?x135 ((_ zero_extend 24) var_buffer_caseless_compare_%temp_var0_0x47064e0)))
 (= zext_0x470a630 ?x135)))
(assert
 (let ((?x221 (bvor var_buffer_caseless_compare_%conv13_0x4709f00 (_ bv32 32))))
 (= or_0x470aac0 ?x221)))
(assert
 (= var_buffer_caseless_compare_%or_0x470a950 or_0x470aac0))
(assert
 (let ((?x215 ((_ extract 7 0) var_buffer_caseless_compare_%or_0x470a950)))
 (= trunc_0x470ae50 ?x215)))
(assert
 (= var_buffer_caseless_compare_%conv14_0x470acb0 trunc_0x470ae50))
(assert
 (= zext_0x470de60 ((_ zero_extend 24) var_buffer_caseless_compare_%ca.0_0x470b010)))
(assert
 (= var_buffer_caseless_compare_%conv28_0x470dcf0 zext_0x470de60))
(assert
 (let (($x165 (= var_buffer_caseless_compare_%conv28_0x470dcf0 var_buffer_caseless_compare_%conv29_0x470e000)))
 (let ((?x166 (ite $x165 (_ bv1 1) (_ bv0 1))))
 (= ieq_0x470e360 ?x166))))
(assert
 (= var_buffer_caseless_compare_%conv16_0x470b300 zext_0x470b470))
(assert
 (let ((?x150 ((_ zero_extend 24) var_buffer_caseless_compare_%temp_var1_0x4707490)))
 (= zext_0x470b470 ?x150)))
(assert
 (let ((?x244 (ite (bvsge var_buffer_caseless_compare_%conv16_0x470b300 (_ bv65 32)) (_ bv1 1) (_ bv0 1))))
 (= isge_0x470b7b0 ?x244)))
(assert
 (= var_buffer_caseless_compare_%cmp17_0x470b610 isge_0x470b7b0))
(assert
 (let ((?x238 (bvand var_buffer_caseless_compare_%cmp17_0x470b610 var_buffer_caseless_compare_%cmp21_0x470bd00)))
 (= and_0x470c090 ?x238)))
(assert
 (= var_buffer_caseless_compare_%conv20_0x470b9a0 zext_0x470bb40))
(assert
 (let ((?x150 ((_ zero_extend 24) var_buffer_caseless_compare_%temp_var1_0x4707490)))
 (= zext_0x470bb40 ?x150)))
(assert
 (let (($x252 (bvsle var_buffer_caseless_compare_%conv20_0x470b9a0 (_ bv90 32))))
 (let ((?x253 (ite $x252 (_ bv1 1) (_ bv0 1))))
 (= isle_0x470bea0 ?x253))))
(assert
 (= var_buffer_caseless_compare_%cmp21_0x470bd00 isle_0x470bea0))
(assert
 (= var_buffer_caseless_compare_%or.cond1_0x4702010 and_0x470c090))
(assert
 (let (($x259 (= var_buffer_caseless_compare_%cb.0_0x470da00 var_buffer_caseless_compare_%conv26_0x470d6a0)))
 (let (($x58 (= var_buffer_caseless_compare_%cmp1_0x4700bd0 (_ bv1 1))))
 (let (($x124 (and (not (= var_buffer_caseless_compare_%cmp4_0x4700db0 (_ bv1 1))) $x58)))
 (let (($x260 (not (and (= var_buffer_caseless_compare_%or.cond1_0x4702010 (_ bv1 1)) $x124))))
 (or $x260 $x259))))))
(assert
 (let (($x263 (= var_buffer_caseless_compare_%cb.0_0x470da00 var_buffer_caseless_compare_%temp_var1_0x4707490)))
 (let (($x58 (= var_buffer_caseless_compare_%cmp1_0x4700bd0 (_ bv1 1))))
 (let (($x124 (and (not (= var_buffer_caseless_compare_%cmp4_0x4700db0 (_ bv1 1))) $x58)))
 (let (($x264 (and $x124 (not (= var_buffer_caseless_compare_%or.cond1_0x4702010 (_ bv1 1))))))
 (or (not $x264) $x263))))))
(assert
 (let (($x263 (= var_buffer_caseless_compare_%cb.0_0x470da00 var_buffer_caseless_compare_%temp_var1_0x4707490)))
 (let (($x259 (= var_buffer_caseless_compare_%cb.0_0x470da00 var_buffer_caseless_compare_%conv26_0x470d6a0)))
 (or $x259 $x263))))
(assert
 (= var_buffer_caseless_compare_%conv24_0x470ca60 zext_0x470d150))
(assert
 (let ((?x150 ((_ zero_extend 24) var_buffer_caseless_compare_%temp_var1_0x4707490)))
 (= zext_0x470d150 ?x150)))
(assert
 (let ((?x276 (bvor var_buffer_caseless_compare_%conv24_0x470ca60 (_ bv32 32))))
 (= or_0x470d4b0 ?x276)))
(assert
 (= var_buffer_caseless_compare_%or25_0x470d310 or_0x470d4b0))
(assert
 (let ((?x271 ((_ extract 7 0) var_buffer_caseless_compare_%or25_0x470d310)))
 (= trunc_0x470d840 ?x271)))
(assert
 (= var_buffer_caseless_compare_%conv26_0x470d6a0 trunc_0x470d840))
(assert
 (= zext_0x470e1a0 ((_ zero_extend 24) var_buffer_caseless_compare_%cb.0_0x470da00)))
(assert
 (= var_buffer_caseless_compare_%conv29_0x470e000 zext_0x470e1a0))
(assert
 (= var_buffer_caseless_compare_%cmp30_0x47025d0 ieq_0x470e360))
(assert
 (let (($x141 (= var_buffer_caseless_compare_LdMem_0x4706710 var_buffer_caseless_compare_StMem__0xcb93b30)))
 (or (not (= R0x47000c0 (_ bv1 1))) $x141)))
(assert
 (= var_buffer_caseless_compare_LdMem_0x4706710 var_buffer_caseless_compare_StMem__0xcb93b30))
(assert
 (= var_buffer_caseless_compare_StMem__0xcb93b30 |parg_var_buffer_caseless_compare_%[S_1].0_0xcb93c30|))
(assert
 (= var_buffer_caseless_compare_%temp_var0_0x47064e0 var_buffer_caseless_compare_LdMem_0x4706710))
(assert
 (let ((?x135 ((_ zero_extend 24) var_buffer_caseless_compare_%temp_var0_0x47064e0)))
 (= zext_0x4707a80 ?x135)))
(assert
 (= var_buffer_caseless_compare_%conv_0x47078e0 zext_0x4707a80))
(assert
 (let (($x129 (= var_buffer_caseless_compare_%conv_0x47078e0 var_buffer_caseless_compare_%conv3_0x4707c40)))
 (let ((?x130 (ite $x129 (_ bv1 1) (_ bv0 1))))
 (= ieq_0x4707fb0 ?x130))))
(assert
 (let (($x155 (= var_buffer_caseless_compare_LdMem_0x4707630 var_buffer_caseless_compare_StMem__0xcb93d50)))
 (or (not (= R0x47000c0 (_ bv1 1))) $x155)))
(assert
 (= var_buffer_caseless_compare_LdMem_0x4707630 var_buffer_caseless_compare_StMem__0xcb93d50))
(assert
 (= var_buffer_caseless_compare_StMem__0xcb93d50 |parg_var_buffer_caseless_compare_%[S_2].0_0xd5f43b0|))
(assert
 (= var_buffer_caseless_compare_%temp_var1_0x4707490 var_buffer_caseless_compare_LdMem_0x4707630))
(assert
 (let ((?x150 ((_ zero_extend 24) var_buffer_caseless_compare_%temp_var1_0x4707490)))
 (= zext_0x4707df0 ?x150)))
(assert
 (= var_buffer_caseless_compare_%conv3_0x4707c40 zext_0x4707df0))
(assert
 (= var_buffer_caseless_compare_%cmp4_0x4700db0 ieq_0x4707fb0))
(assert
 (= var_buffer_caseless_compare_%cmp_0x4704d70 iult_0x4705280))
(assert
 (let (($x75 (bvult carg_var_buffer_caseless_compare_%a_len_0x4700450 carg_var_buffer_caseless_compare_%b_len_0x47007a0)))
 (= iult_0x4705280 (ite $x75 (_ bv1 1) (_ bv0 1)))))
(assert
 (let ((?x71 (ite (= var_buffer_caseless_compare_%cmp_0x4704d70 (_ bv1 1)) carg_var_buffer_caseless_compare_%a_len_0x4700450 carg_var_buffer_caseless_compare_%b_len_0x47007a0)))
 (= select_0x47050b0 ?x71)))
(assert
 (= var_buffer_caseless_compare_%a_len.b_len_0x4704f40 select_0x47050b0))
(assert
 (= var_buffer_caseless_compare_%i.0_0x4705570 (_ bv0 64)))
(assert
 (= var_buffer_caseless_compare_%i.0_0x4705570 (_ bv0 64)))
(assert
 (let (($x62 (bvult var_buffer_caseless_compare_%i.0_0x4705570 var_buffer_caseless_compare_%a_len.b_len_0x4704f40)))
 (= iult_0x47058e0 (ite $x62 (_ bv1 1) (_ bv0 1)))))
(assert
 (= var_buffer_caseless_compare_%cmp1_0x4700bd0 iult_0x47058e0))
(assert
 (let (($x282 (= var_buffer_caseless_compare_%i.0.ec_0x4710150 var_buffer_caseless_compare_%inc_0x470ee30)))
 (let (($x58 (= var_buffer_caseless_compare_%cmp1_0x4700bd0 (_ bv1 1))))
 (let (($x124 (and (not (= var_buffer_caseless_compare_%cmp4_0x4700db0 (_ bv1 1))) $x58)))
 (let (($x160 (or (and (= var_buffer_caseless_compare_%cmp4_0x4700db0 (_ bv1 1)) $x58) (and (= var_buffer_caseless_compare_%cmp30_0x47025d0 (_ bv1 1)) $x124))))
 (or (not $x160) $x282))))))
(assert
 (= var_buffer_caseless_compare_%i.0.ec_0x4710150 var_buffer_caseless_compare_%inc_0x470ee30))
(assert
 (= var_buffer_caseless_compare_%inc_0x470ee30 add_0x470ff60))
(assert
 (= add_0x470ff60 (bvadd var_buffer_caseless_compare_%i.0_0x4705570 (_ bv1 64))))
(assert
 (let (($x115 (or (= var_buffer_caseless_compare_%i.0.ec_0x4710150 (_ bv0 64)) (= (_ bv8 64) (_ bv0 64)))))
 (let (($x92 (= mul_0x47108b0 (bvmul var_buffer_caseless_compare_%i.0.ec_0x4710150 (_ bv8 64)))))
 (and $x92 (or $x115 (and (distinct mul_0x47108b0 (_ bv0 64)) true))))))
(assert
 (= var_buffer_caseless_compare_node_0x4710a40 mul_0x47108b0))
(assert
 (let ((?x82 (bvadd carg_var_buffer_caseless_compare_%a_0x46fffc0 var_buffer_caseless_compare_node_0x4710a40)))
 (= add_0x4710c00 ?x82)))
(assert
 (= var_buffer_caseless_compare_node_0x4710de0 add_0x4710c00))
(assert
 (let (($x35 (= carg_var_buffer_caseless_compare_%a_0x46fffc0 (_ bv0 64))))
 (let (($x87 (= gep_0x4711120 (ite $x35 (_ bv0 64) var_buffer_caseless_compare_node_0x4710de0))))
 (and $x87 (or $x35 (and (distinct var_buffer_caseless_compare_node_0x4710de0 (_ bv0 64)) true))))))
(assert
 (= var_buffer_caseless_compare_%cmp1.ec_0x47028a0 iult_0x47103e0))
(assert
 (let (($x294 (bvult var_buffer_caseless_compare_%i.0.ec_0x4710150 var_buffer_caseless_compare_%a_len.b_len_0x4704f40)))
 (= iult_0x47103e0 (ite $x294 (_ bv1 1) (_ bv0 1)))))
(assert
 (= var_buffer_caseless_compare_%arrayidx.ec_0x4710f80 gep_0x4711120))
(assert
 (let (($x58 (= var_buffer_caseless_compare_%cmp1_0x4700bd0 (_ bv1 1))))
 (let (($x124 (and (not (= var_buffer_caseless_compare_%cmp4_0x4700db0 (_ bv1 1))) $x58)))
 (let (($x160 (or (and (= var_buffer_caseless_compare_%cmp4_0x4700db0 (_ bv1 1)) $x58) (and (= var_buffer_caseless_compare_%cmp30_0x47025d0 (_ bv1 1)) $x124))))
 (and (= var_buffer_caseless_compare_%cmp1.ec_0x47028a0 (_ bv1 1)) $x160)))))
(assert
 (= var_buffer_caseless_compare_%arrayidx.ec_0x4710f80 (_ bv0 64)))
(check-sat)


